s = array1d(1..225, [12, 0, 0, 14, 3, 0, 0, 6, 10, 0, 0, 0, 0, 1, 11, 0, 12, 0, 0, 5, 0, 14, 10, 0, 7, 0, 0, 6, 8, 0, 6, 0, 2, 0, 0, 9, 0, 0, 0, 0, 0, 0, 14, 5, 1, 10, 0, 4, 0, 0, 5, 0, 0, 0, 13, 6, 1, 3, 0, 0, 0, 2, 0, 10, 0, 0, 11, 0, 0, 9, 14, 0, 1, 0, 4, 11, 0, 7, 1, 0, 10, 2, 0, 0, 0, 12, 0, 0, 0, 0, 0, 0, 6, 8, 0, 0, 0, 0, 3, 0, 2, 4, 7, 0, 5, 0, 11, 0, 13, 4, 0, 5, 0, 0, 12, 9, 8, 0, 0, 0, 2, 10, 0, 0, 0, 0, 7, 13, 9, 8, 0, 0, 0, 0, 0, 4, 0, 0, 0, 0, 13, 0, 9, 8, 11, 0, 7, 0, 0, 10, 0, 6, 1, 0, 0, 0, 8, 4, 2, 0, 11, 0, 0, 3, 0, 5, 0, 9, 0, 11, 0, 0, 1, 7, 0, 0, 0, 0, 0, 14, 0, 0, 0, 0, 7, 2, 6, 0, 0, 14, 5, 0, 0, 9, 0, 0, 0, 0, 4, 14, 8, 0, 0, 0, 0, 0, 6, 12, 0, 2, 0, 14, 3, 0, 9, 0, 0, 11, 0, 0, 0, 13, 0, 12, 0]);
n = 15;
